mixintcount/benchmarks/random_v2l/3_3_3162.smt2
(set-logic QF_LIA)
(set-info :ran/ran2.smt2)
(set-info :smt-lib-version 2.0)
(declare-fun x1 () Int)
(declare-fun x2 () Int)
(declare-fun x3 () Int)
(assert (<= (+ (* (- 7) x1) (* 9 x2) (* (- 6) x3) ) (- 1463)))
(assert (<= (+ (* 2 x1) (* 10 x2) (* 4 x3) ) 2998))
(assert (<= (+ (* (- 2) x1) (* 9 x2) (* (- 1) x3) ) 701))
(assert (<= (+ (* 4 x1) (* 8 x2) (* (- 4) x3) ) (- 668)))
(assert (<= (+ (* 7 x1) (* (- 4) x2) (* (- 10) x3) ) (- 2428)))
(assert (<= (+ (* 5 x1) (* (- 4) x2) (* 8 x3) ) 2239))
(assert (<= (+ (* 1 x1) (* 0 x2) (* 0 x3) ) 3162))
(assert (<= (+ (* (- 1) x1) (* 0 x2) (* 0 x3) ) 3162))
(assert (<= (+ (* 0 x1) (* 1 x2) (* 0 x3) ) 3162))
(assert (<= (+ (* 0 x1) (* (- 1) x2) (* 0 x3) ) 3162))
(assert (<= (+ (* 0 x1) (* 0 x2) (* 1 x3) ) 3162))
(assert (<= (+ (* 0 x1) (* 0 x2) (* (- 1) x3) ) 3162))
