mixintcount/benchmarks/random_v2l/3_3_3162.in
12 5
#	x1	x2	x3;		0 = Real; 1 = Integer
	1	1	1
1	-7	9	-6	-1463
1	2	10	4	2998
1	-2	9	-1	701
1	4	8	-4	-668
1	7	-4	-10	-2428
1	5	-4	8	2239
1	1	0	0	3162
1	-1	0	0	3162
1	0	1	0	3162
1	0	-1	0	3162
1	0	0	1	3162
1	0	0	-1	3162
